\ENCODING=ISO-8859-1
\Problem name: 

Maximize
 obj:
Subject To
 c1:  - x1 + x16  = 18
 c2:  - x2 + x17  = 13
 c3:  - x3 + x18  = 12
 c4:  - x4 + x19  = 14
 c5:  - x5 + x20  = 21
 c6:  - x6 + x21  = 18
 c7:  - x7 + x22  = 21
 c8:  - x8 + x23  = 18
 c9:  - x9 + x24  = 10
 c10: - x10 + x25  = 10
 c11: - x11 + x26  = 8
 c12: - x12 + x27  = 13
 c13: - x13 + x28  = 0
 c14: - x14 + x29  = 0
 c15: - x15 + x30  = 0
Bounds
 0 <= x1 <= 37
 0 <= x2 <= 36
 0 <= x3 <= 26
 0 <= x4 <= 48
 0 <= x5 <= 39
 0 <= x6 <= 38
 0 <= x7 <= 14
 0 <= x8 <= 17
 0 <= x9 <= 17
 0 <= x10 <= 12
 0 <= x11 <= 38
 0 <= x12 <= 46
      x13 = 0
      x14 = 0
      x15 = 0
End
